Minimize
  - 9 y_0 - 5 y_1 - 12 y_2 - 7 y_3 - 11 y_4 - 11 y_5 - 3 y_6 - 9 y_7 - 9 y_8
   - 8 y_9 - 2 y_11 - 11 y_12 - 10 y_13 - 9 y_14 - 9 y_15 - 6 y_16 - 7 y_17
   - 9 y_18 - 3 y_19 + 150 Constant
Subject To
 c_0: y_0 = 1
 c_1_0: y_0 + y_8 >= 1
 c_1_1: y_1 >= 1
 c_1_2: y_2 >= 1
 c_1_3: y_3 + y_9 + y_17 >= 1
 c_1_4: y_4 + y_12 >= 1
 c_1_5: y_5 >= 1
 c_1_6: y_6 + y_19 >= 1
 c_1_7: y_7 + y_9 >= 1
 c_1_8: y_0 + y_8 >= 1
 c_1_9: y_3 + y_7 + y_9 + y_17 >= 1
 c_1_10: y_10 >= 1
 c_1_11: y_11 >= 1
 c_1_12: y_4 + y_12 >= 1
 c_1_13: y_13 >= 1
 c_1_14: y_14 >= 1
 c_1_15: y_15 + y_18 >= 1
 c_1_16: y_16 >= 1
 c_1_17: y_3 + y_9 + y_17 >= 1
 c_1_18: y_15 + y_18 >= 1
 c_1_19: y_6 + y_19 >= 1
Bounds
 Constant = 1
Binaries
 y_0 y_1 y_2 y_3 y_4 y_5 y_6 y_7 y_8 y_9 y_10 y_11 y_12 y_13 y_14 y_15 y_16
 y_17 y_18 y_19
End
